p edge 500 135
e 407 421 1.000000
e 294 407 1.000000
e 294 421 1.000000
e 42 249 1.000000
e 42 391 1.000000
e 249 391 1.000000
e 19 134 1.000000
e 1 134 1.000000
e 1 19 1.000000
e 75 340 1.000000
e 75 301 1.000000
e 301 340 1.000000
e 241 495 1.000000
e 241 389 1.000000
e 389 495 1.000000
e 192 377 1.000000
e 164 377 1.000000
e 164 192 1.000000
e 12 395 1.000000
e 12 140 1.000000
e 140 395 1.000000
e 251 411 1.000000
e 102 251 1.000000
e 102 411 1.000000
e 374 447 1.000000
e 212 374 1.000000
e 212 447 1.000000
e 276 467 1.000000
e 276 277 1.000000
e 277 467 1.000000
e 49 350 1.000000
e 49 99 1.000000
e 99 350 1.000000
e 289 359 1.000000
e 284 289 1.000000
e 284 359 1.000000
e 374 413 1.000000
e 136 413 1.000000
e 136 374 1.000000
e 340 412 1.000000
e 313 340 1.000000
e 313 412 1.000000
e 352 433 1.000000
e 46 352 1.000000
e 46 433 1.000000
e 172 218 1.000000
e 48 218 1.000000
e 48 172 1.000000
e 186 410 1.000000
e 186 210 1.000000
e 210 410 1.000000
e 129 413 1.000000
e 129 228 1.000000
e 228 413 1.000000
e 359 387 1.000000
e 49 359 1.000000
e 49 387 1.000000
e 101 359 1.000000
e 101 326 1.000000
e 326 359 1.000000
e 150 408 1.000000
e 50 408 1.000000
e 50 150 1.000000
e 24 488 1.000000
e 24 302 1.000000
e 302 488 1.000000
e 103 463 1.000000
e 103 424 1.000000
e 424 463 1.000000
e 336 468 1.000000
e 185 336 1.000000
e 185 468 1.000000
e 250 478 1.000000
e 250 427 1.000000
e 427 478 1.000000
e 100 466 1.000000
e 100 264 1.000000
e 264 466 1.000000
e 295 331 1.000000
e 295 497 1.000000
e 331 497 1.000000
e 358 457 1.000000
e 358 413 1.000000
e 413 457 1.000000
e 258 500 1.000000
e 258 470 1.000000
e 470 500 1.000000
e 15 325 1.000000
e 15 186 1.000000
e 186 325 1.000000
e 126 309 1.000000
e 126 221 1.000000
e 221 309 1.000000
e 156 183 1.000000
e 156 302 1.000000
e 183 302 1.000000
e 62 257 1.000000
e 46 62 1.000000
e 46 257 1.000000
e 348 451 1.000000
e 269 451 1.000000
e 269 348 1.000000
e 102 312 1.000000
e 60 102 1.000000
e 60 312 1.000000
e 138 340 1.000000
e 138 160 1.000000
e 160 340 1.000000
e 101 369 1.000000
e 101 195 1.000000
e 195 369 1.000000
e 115 248 1.000000
e 71 248 1.000000
e 71 115 1.000000
e 306 428 1.000000
e 108 306 1.000000
e 108 428 1.000000
e 444 449 1.000000
e 358 444 1.000000
e 358 449 1.000000
e 7 268 1.000000
e 7 97 1.000000
e 97 268 1.000000
e 87 399 1.000000
e 9 399 1.000000
e 9 87 1.000000
e 171 332 1.000000
e 171 286 1.000000
e 286 332 1.000000
e 344 464 1.000000
e 318 464 1.000000
e 318 344 1.000000
e 157 317 1.000000
e 157 192 1.000000
e 192 317 1.000000
